500
[50,51,52,53,54,55,57,58,59,60,61,63,65,66,67,68,69,70,71,73,74,75,76,77,80,84,85,86,88,89,90,92,93,94,95,97,98,99,100,102,103,104,105,107,108,110,111,113,114,116,117,121,122,123,124,125,126,127,128,129,131,132,134,139,140,141,142,143,144,145,146,148,149,153,155,156,159,160,161,163,164,165,166,167,169,170,172,173,175,176,177,178,180,182,184,185,186,187,188,190,191,193,194,197,198,199,200,202,203,205,207,208,209,210,212,213,214,215,216,217,218,219,220,222,223,224,225,226,228,229,231,232,233,234,235,236,237,238,239,241,242,245,246,247,251,253,254,255,256,260,261,262,263,264,266,267,268,269,271,272,273,275,276,277,279,281,282,284,286,287,289,291,292,293,294,295,296,297,298,300,301,302,303,304,305,309,310,311,312,313,314,315,316,318,319,320,321,322,325,326,327,329,330,331,333,334,336,337,338,339,340,342,343,344,345,346,347,348,349,350]
[5,3,2,2,1,1,1,1,4,2,1,1,1,1,1,1,3,2,1,1,1,2,1,3,3,2,4,1,3,1,1,2,2,2,1,2,3,3,1,1,1,2,3,1,1,1,1,2,3,1,2,4,3,1,2,2,2,4,1,1,2,1,2,6,2,1,2,1,1,2,2,1,3,2,1,1,1,2,1,1,2,2,3,4,1,1,2,2,2,1,2,2,1,1,1,1,2,2,2,2,1,1,2,1,2,1,2,1,2,3,1,1,2,4,1,2,1,1,1,2,3,3,1,6,2,2,1,1,2,2,1,2,1,1,3,4,1,2,4,4,2,2,3,3,1,2,2,1,1,1,1,1,2,1,1,3,1,1,2,4,3,4,1,1,1,3,1,1,3,1,1,2,5,1,1,3,3,1,3,2,4,2,3,2,1,1,2,2,1,1,1,1,2,2,1,1,2,1,1,1,2,1,1,2,1,1,2,2,1,2,2,1,2,1,2,1,1,2,3,1]
